(set-info :source |printed by MathSAT|)
(declare-fun call_moesi.ite2 () Int)
(declare-fun call_moesi.ite5.next () Int)
(declare-fun call_moesi.shared_mo.next () Int)
(declare-fun flby.next () Bool)
(declare-fun call_moesi.ite29.next () Int)
(declare-fun call_moesi.flby6.next () Int)
(declare-fun erreur_mo () Bool)
(declare-fun call_moesi.ite6.next () Int)
(declare-fun call_moesi.flby3.next () Int)
(declare-fun call_moesi.ite20.next () Int)
(declare-fun flby () Bool)
(declare-fun param_etat_mo2 () Bool)
(declare-fun call_moesi.ite () Int)
(declare-fun call_moesi.invalid_mo () Int)
(declare-fun param_etat_mo1 () Bool)
(declare-fun call_Sofar.Sofar.next () Bool)
(declare-fun call_moesi.ite33 () Int)
(declare-fun call_moesi.modified_mo.next () Int)
(declare-fun call_moesi.ite11.next () Int)
(declare-fun call_moesi.flby5 () Int)
(declare-fun call_moesi.ite8.next () Int)
(declare-fun call_moesi.owned_mo.next () Int)
(declare-fun call_moesi.ite10 () Int)
(declare-fun call_moesi.ite32.next () Int)
(declare-fun modified_mo () Int)
(declare-fun call_moesi.flby6 () Int)
(declare-fun call_moesi.ite19.next () Int)
(declare-fun call_moesi.ite28 () Int)
(declare-fun call_moesi.erreur_mo () Bool)
(declare-fun call_Sofar.flby.next () Bool)
(declare-fun call_moesi.flby () Bool)
(declare-fun call_excludes4.excludes.next () Bool)
(declare-fun call_moesi.ite27.next () Int)
(declare-fun call_moesi.ite31.next () Int)
(declare-fun call_moesi.flby4.next () Int)
(declare-fun call_moesi.ite3.next () Int)
(declare-fun call_moesi.ite13.next () Int)
(declare-fun call_moesi.flby5.next () Int)
(declare-fun owned_mo () Int)
(declare-fun call_moesi.ite23.next () Int)
(declare-fun call_moesi.ite.next () Int)
(declare-fun call_moesi.ite3 () Int)
(declare-fun call_moesi.ite16 () Int)
(declare-fun call_moesi.ite29 () Int)
(declare-fun call_moesi.ite15 () Int)
(declare-fun call_moesi.ite24.next () Int)
(declare-fun param_etat_mo3.next () Bool)
(declare-fun call_moesi.ite2.next () Int)
(declare-fun param_etat_mo1.next () Bool)
(declare-fun call_moesi.garde_mo1.next () Bool)
(declare-fun call_excludes4.excludes () Bool)
(declare-fun call_moesi.ite21 () Int)
(declare-fun call_moesi.ite22.next () Int)
(declare-fun call_moesi.shared_mo () Int)
(declare-fun call_moesi.ite14.next () Int)
(declare-fun call_moesi.flby4 () Int)
(declare-fun param_etat_mo2.next () Bool)
(declare-fun call_moesi.flby3 () Int)
(declare-fun call_moesi.ite17.next () Int)
(declare-fun call_moesi.ite5 () Int)
(declare-fun exclusive_mo.next () Int)
(declare-fun call_moesi.ite34.next () Int)
(declare-fun call_moesi.ite25.next () Int)
(declare-fun call_moesi.ite7.next () Int)
(declare-fun call_moesi.ite32 () Int)
(declare-fun call_moesi.ite16.next () Int)
(declare-fun exclusive_mo () Int)
(declare-fun call_moesi.ite26 () Int)
(declare-fun call_moesi.flby2 () Int)
(declare-fun _OK_.next () Bool)
(declare-fun call_moesi.ite21.next () Int)
(declare-fun _OK_ () Bool)
(declare-fun call_moesi.ite10.next () Int)
(declare-fun call_moesi.ite17 () Int)
(declare-fun invalid_mo () Int)
(declare-fun call_moesi.ite34 () Int)
(declare-fun shared_mo.next () Int)
(declare-fun call_moesi.ite15.next () Int)
(declare-fun call_moesi.erreur_mo.next () Bool)
(declare-fun call_moesi.ite4.next () Int)
(declare-fun call_moesi.exclusive_mo () Int)
(declare-fun call_moesi.invalid_mo.next () Int)
(declare-fun param_etat_mo4 () Bool)
(declare-fun call_moesi.ite7 () Int)
(declare-fun call_moesi.ite11 () Int)
(declare-fun call_Sofar.Sofar () Bool)
(declare-fun call_moesi.ite28.next () Int)
(declare-fun call_moesi.ite18 () Int)
(declare-fun call_moesi.exclusive_mo.next () Int)
(declare-fun env () Bool)
(declare-fun invalid_mo.next () Int)
(declare-fun call_moesi.ite27 () Int)
(declare-fun call_moesi.ite8 () Int)
(declare-fun call_moesi.ite14 () Int)
(declare-fun call_Sofar.flby () Bool)
(declare-fun call_moesi.ite6 () Int)
(declare-fun call_moesi.ite12.next () Int)
(declare-fun call_moesi.ite22 () Int)
(declare-fun call_moesi.ite18.next () Int)
(declare-fun call_moesi.garde_mo2.next () Bool)
(declare-fun call_moesi.ite33.next () Int)
(declare-fun shared_mo () Int)
(declare-fun call_moesi.flby2.next () Int)
(declare-fun call_moesi.ite9 () Int)
(declare-fun call_moesi.ite26.next () Int)
(declare-fun call_moesi.ite20 () Int)
(declare-fun call_moesi.ite30 () Int)
(declare-fun param_etat_mo4.next () Bool)
(declare-fun call_moesi.ite9.next () Int)
(declare-fun call_moesi.ite24 () Int)
(declare-fun param_etat_mo3 () Bool)
(declare-fun call_moesi.owned_mo () Int)
(declare-fun owned_mo.next () Int)
(declare-fun call_moesi.flby.next () Bool)
(declare-fun env.next () Bool)
(declare-fun call_moesi.garde_mo4.next () Bool)
(declare-fun call_moesi.modified_mo () Int)
(declare-fun call_moesi.ite23 () Int)
(declare-fun modified_mo.next () Int)
(declare-fun call_moesi.ite30.next () Int)
(declare-fun call_moesi.garde_mo3.next () Bool)
(declare-fun erreur_mo.next () Bool)
(declare-fun call_moesi.ite13 () Int)
(define-fun .def_1357 () Bool (= call_Sofar.flby.next call_Sofar.Sofar.next))
(define-fun .def_1352 () Bool (and param_etat_mo4.next param_etat_mo3.next))
(define-fun .def_1350 () Bool (and param_etat_mo4.next param_etat_mo2.next))
(define-fun .def_1348 () Bool (and param_etat_mo2.next param_etat_mo3.next))
(define-fun .def_1346 () Bool (and param_etat_mo4.next param_etat_mo1.next))
(define-fun .def_1344 () Bool (and param_etat_mo1.next param_etat_mo3.next))
(define-fun .def_1343 () Bool (and param_etat_mo2.next param_etat_mo1.next))
(define-fun .def_1345 () Bool (or .def_1343 .def_1344))
(define-fun .def_1347 () Bool (or .def_1345 .def_1346))
(define-fun .def_1349 () Bool (or .def_1347 .def_1348))
(define-fun .def_1351 () Bool (or .def_1349 .def_1350))
(define-fun .def_1353 () Bool (or .def_1351 .def_1352))
(define-fun .def_1354 () Bool (not .def_1353))
(define-fun .def_1355 () Bool (= call_excludes4.excludes.next .def_1354))
(define-fun .def_1341 () Bool (= call_moesi.flby.next call_moesi.erreur_mo.next))
(define-fun .def_1339 () Bool (= call_moesi.flby6.next call_moesi.owned_mo.next))
(define-fun .def_1337 () Bool (= call_moesi.flby5.next call_moesi.invalid_mo.next))
(define-fun .def_1335 () Bool (= call_moesi.flby4.next call_moesi.shared_mo.next))
(define-fun .def_1333 () Bool (= call_moesi.exclusive_mo.next call_moesi.flby3.next))
(define-fun .def_1331 () Bool (= call_moesi.flby2.next call_moesi.modified_mo.next))
(define-fun .def_1329 () Bool (= env.next call_Sofar.Sofar.next))
(define-fun .def_1326 () Bool (= erreur_mo.next call_moesi.erreur_mo.next))
(define-fun .def_1323 () Bool (= owned_mo.next call_moesi.owned_mo.next))
(define-fun .def_1320 () Bool (= invalid_mo.next call_moesi.invalid_mo.next))
(define-fun .def_1317 () Bool (= shared_mo.next call_moesi.shared_mo.next))
(define-fun .def_1314 () Bool (= exclusive_mo.next call_moesi.exclusive_mo.next))
(define-fun .def_1312 () Bool (= modified_mo.next call_moesi.modified_mo.next))
(define-fun .def_1306 () Bool (not erreur_mo.next))
(define-fun .def_1307 () Bool (and flby.next .def_1306))
(define-fun .def_1304 () Bool (not env.next))
(define-fun .def_1308 () Bool (or .def_1304 .def_1307))
(define-fun .def_1309 () Bool (= _OK_.next .def_1308))
(define-fun .def_1298 () Bool (= call_moesi.ite32.next call_moesi.ite33.next))
(define-fun .def_1299 () Bool (or param_etat_mo3.next .def_1298))
(define-fun .def_1295 () Bool (= call_moesi.ite30.next call_moesi.ite33.next))
(define-fun .def_1274 () Bool (not param_etat_mo3.next))
(define-fun .def_1296 () Bool (or .def_1274 .def_1295))
(define-fun .def_1292 () Bool (= call_moesi.ite26.next call_moesi.ite27.next))
(define-fun .def_1293 () Bool (or param_etat_mo3.next .def_1292))
(define-fun .def_1289 () Bool (= call_moesi.ite24.next call_moesi.ite27.next))
(define-fun .def_1290 () Bool (or .def_1274 .def_1289))
(define-fun .def_1286 () Bool (= call_moesi.ite20.next call_moesi.ite21.next))
(define-fun .def_1287 () Bool (or param_etat_mo3.next .def_1286))
(define-fun .def_1283 () Bool (= call_moesi.ite18.next call_moesi.ite21.next))
(define-fun .def_1284 () Bool (or .def_1274 .def_1283))
(define-fun .def_1280 () Bool (= call_moesi.ite13.next call_moesi.ite14.next))
(define-fun .def_1281 () Bool (or param_etat_mo3.next .def_1280))
(define-fun .def_1277 () Bool (= call_moesi.ite11.next call_moesi.ite14.next))
(define-fun .def_1278 () Bool (or .def_1274 .def_1277))
(define-fun .def_1273 () Bool (= call_moesi.ite3.next call_moesi.ite6.next))
(define-fun .def_1275 () Bool (or .def_1273 .def_1274))
(define-fun .def_1270 () Bool (= call_moesi.ite5.next call_moesi.ite6.next))
(define-fun .def_1272 () Bool (or .def_1270 param_etat_mo3.next))
(define-fun .def_1276 () Bool (and .def_1272 .def_1275))
(define-fun .def_1279 () Bool (and .def_1276 .def_1278))
(define-fun .def_1282 () Bool (and .def_1279 .def_1281))
(define-fun .def_1285 () Bool (and .def_1282 .def_1284))
(define-fun .def_1288 () Bool (and .def_1285 .def_1287))
(define-fun .def_1291 () Bool (and .def_1288 .def_1290))
(define-fun .def_1294 () Bool (and .def_1291 .def_1293))
(define-fun .def_1297 () Bool (and .def_1294 .def_1296))
(define-fun .def_1300 () Bool (and .def_1297 .def_1299))
(define-fun .def_1266 () Bool (= call_moesi.ite34.next call_moesi.ite33.next))
(define-fun .def_1267 () Bool (or param_etat_mo1.next .def_1266))
(define-fun .def_1262 () Bool (= call_moesi.ite29.next call_moesi.ite34.next))
(define-fun .def_1239 () Bool (not param_etat_mo1.next))
(define-fun .def_1263 () Bool (or .def_1239 .def_1262))
(define-fun .def_1259 () Bool (= call_moesi.ite28.next call_moesi.ite27.next))
(define-fun .def_1260 () Bool (or param_etat_mo1.next .def_1259))
(define-fun .def_1255 () Bool (= call_moesi.ite23.next call_moesi.ite28.next))
(define-fun .def_1256 () Bool (or .def_1239 .def_1255))
(define-fun .def_1252 () Bool (= call_moesi.ite22.next call_moesi.ite21.next))
(define-fun .def_1253 () Bool (or param_etat_mo1.next .def_1252))
(define-fun .def_1248 () Bool (= call_moesi.ite17.next call_moesi.ite22.next))
(define-fun .def_1249 () Bool (or .def_1239 .def_1248))
(define-fun .def_1245 () Bool (= call_moesi.ite16.next call_moesi.ite15.next))
(define-fun .def_1246 () Bool (or param_etat_mo1.next .def_1245))
(define-fun .def_1242 () Bool (= call_moesi.ite9.next call_moesi.ite16.next))
(define-fun .def_1243 () Bool (or .def_1239 .def_1242))
(define-fun .def_1238 () Bool (= call_moesi.ite.next call_moesi.ite8.next))
(define-fun .def_1240 () Bool (or .def_1238 .def_1239))
(define-fun .def_1235 () Bool (= call_moesi.ite8.next call_moesi.ite7.next))
(define-fun .def_1237 () Bool (or .def_1235 param_etat_mo1.next))
(define-fun .def_1241 () Bool (and .def_1237 .def_1240))
(define-fun .def_1244 () Bool (and .def_1241 .def_1243))
(define-fun .def_1247 () Bool (and .def_1244 .def_1246))
(define-fun .def_1250 () Bool (and .def_1247 .def_1249))
(define-fun .def_1254 () Bool (and .def_1250 .def_1253))
(define-fun .def_1257 () Bool (and .def_1254 .def_1256))
(define-fun .def_1261 () Bool (and .def_1257 .def_1260))
(define-fun .def_1264 () Bool (and .def_1261 .def_1263))
(define-fun .def_1268 () Bool (and .def_1264 .def_1267))
(define-fun .def_1232 () Bool (= call_moesi.ite15.next call_moesi.ite14.next))
(define-fun .def_1233 () Bool (or param_etat_mo2.next .def_1232))
(define-fun .def_1228 () Bool (= call_moesi.ite10.next call_moesi.ite15.next))
(define-fun .def_1224 () Bool (not param_etat_mo2.next))
(define-fun .def_1229 () Bool (or .def_1224 .def_1228))
(define-fun .def_1223 () Bool (= call_moesi.ite2.next call_moesi.ite7.next))
(define-fun .def_1225 () Bool (or .def_1223 .def_1224))
(define-fun .def_1220 () Bool (= call_moesi.ite7.next call_moesi.ite6.next))
(define-fun .def_1222 () Bool (or .def_1220 param_etat_mo2.next))
(define-fun .def_1226 () Bool (and .def_1222 .def_1225))
(define-fun .def_1230 () Bool (and .def_1226 .def_1229))
(define-fun .def_1234 () Bool (and .def_1230 .def_1233))
(define-fun .def_1269 () Bool (and .def_1234 .def_1268))
(define-fun .def_1301 () Bool (and .def_1269 .def_1300))
(define-fun .def_1310 () Bool (and .def_1301 .def_1309))
(define-fun .def_1313 () Bool (and .def_1310 .def_1312))
(define-fun .def_1315 () Bool (and .def_1313 .def_1314))
(define-fun .def_1318 () Bool (and .def_1315 .def_1317))
(define-fun .def_1321 () Bool (and .def_1318 .def_1320))
(define-fun .def_1324 () Bool (and .def_1321 .def_1323))
(define-fun .def_1327 () Bool (and .def_1324 .def_1326))
(define-fun .def_1330 () Bool (and .def_1327 .def_1329))
(define-fun .def_1332 () Bool (and .def_1330 .def_1331))
(define-fun .def_1334 () Bool (and .def_1332 .def_1333))
(define-fun .def_1336 () Bool (and .def_1334 .def_1335))
(define-fun .def_1338 () Bool (and .def_1336 .def_1337))
(define-fun .def_1340 () Bool (and .def_1338 .def_1339))
(define-fun .def_1342 () Bool (and .def_1340 .def_1341))
(define-fun .def_1356 () Bool (and .def_1342 .def_1355))
(define-fun .def_1358 () Bool (and .def_1356 .def_1357))
(define-fun .def_936 () Bool (= call_Sofar.flby call_Sofar.Sofar))
(define-fun .def_931 () Bool (and param_etat_mo4 param_etat_mo3))
(define-fun .def_929 () Bool (and param_etat_mo4 param_etat_mo2))
(define-fun .def_927 () Bool (and param_etat_mo2 param_etat_mo3))
(define-fun .def_925 () Bool (and param_etat_mo4 param_etat_mo1))
(define-fun .def_923 () Bool (and param_etat_mo1 param_etat_mo3))
(define-fun .def_922 () Bool (and param_etat_mo2 param_etat_mo1))
(define-fun .def_924 () Bool (or .def_922 .def_923))
(define-fun .def_926 () Bool (or .def_924 .def_925))
(define-fun .def_928 () Bool (or .def_926 .def_927))
(define-fun .def_930 () Bool (or .def_928 .def_929))
(define-fun .def_932 () Bool (or .def_930 .def_931))
(define-fun .def_933 () Bool (not .def_932))
(define-fun .def_934 () Bool (= call_excludes4.excludes .def_933))
(define-fun .def_920 () Bool (= call_moesi.flby call_moesi.erreur_mo))
(define-fun .def_918 () Bool (= call_moesi.flby6 call_moesi.owned_mo))
(define-fun .def_916 () Bool (= call_moesi.flby5 call_moesi.invalid_mo))
(define-fun .def_914 () Bool (= call_moesi.flby4 call_moesi.shared_mo))
(define-fun .def_912 () Bool (= call_moesi.flby3 call_moesi.exclusive_mo))
(define-fun .def_910 () Bool (= call_moesi.flby2 call_moesi.modified_mo))
(define-fun .def_908 () Bool (= env call_Sofar.Sofar))
(define-fun .def_905 () Bool (= erreur_mo call_moesi.erreur_mo))
(define-fun .def_902 () Bool (= owned_mo call_moesi.owned_mo))
(define-fun .def_898 () Bool (= invalid_mo call_moesi.invalid_mo))
(define-fun .def_894 () Bool (= shared_mo call_moesi.shared_mo))
(define-fun .def_890 () Bool (= exclusive_mo call_moesi.exclusive_mo))
(define-fun .def_886 () Bool (= modified_mo call_moesi.modified_mo))
(define-fun .def_879 () Bool (not erreur_mo))
(define-fun .def_880 () Bool (and flby .def_879))
(define-fun .def_877 () Bool (not env))
(define-fun .def_881 () Bool (or .def_877 .def_880))
(define-fun .def_882 () Bool (= _OK_ .def_881))
(define-fun .def_871 () Bool (= call_moesi.ite32 call_moesi.ite33))
(define-fun .def_872 () Bool (or param_etat_mo3 .def_871))
(define-fun .def_868 () Bool (= call_moesi.ite30 call_moesi.ite33))
(define-fun .def_846 () Bool (not param_etat_mo3))
(define-fun .def_869 () Bool (or .def_846 .def_868))
(define-fun .def_865 () Bool (= call_moesi.ite26 call_moesi.ite27))
(define-fun .def_866 () Bool (or param_etat_mo3 .def_865))
(define-fun .def_862 () Bool (= call_moesi.ite27 call_moesi.ite24))
(define-fun .def_863 () Bool (or .def_846 .def_862))
(define-fun .def_858 () Bool (= call_moesi.ite20 call_moesi.ite21))
(define-fun .def_859 () Bool (or param_etat_mo3 .def_858))
(define-fun .def_855 () Bool (= call_moesi.ite18 call_moesi.ite21))
(define-fun .def_856 () Bool (or .def_846 .def_855))
(define-fun .def_852 () Bool (= call_moesi.ite13 call_moesi.ite14))
(define-fun .def_853 () Bool (or param_etat_mo3 .def_852))
(define-fun .def_849 () Bool (= call_moesi.ite11 call_moesi.ite14))
(define-fun .def_850 () Bool (or .def_846 .def_849))
(define-fun .def_845 () Bool (= call_moesi.ite3 call_moesi.ite6))
(define-fun .def_847 () Bool (or .def_845 .def_846))
(define-fun .def_842 () Bool (= call_moesi.ite5 call_moesi.ite6))
(define-fun .def_844 () Bool (or .def_842 param_etat_mo3))
(define-fun .def_848 () Bool (and .def_844 .def_847))
(define-fun .def_851 () Bool (and .def_848 .def_850))
(define-fun .def_854 () Bool (and .def_851 .def_853))
(define-fun .def_857 () Bool (and .def_854 .def_856))
(define-fun .def_860 () Bool (and .def_857 .def_859))
(define-fun .def_864 () Bool (and .def_860 .def_863))
(define-fun .def_867 () Bool (and .def_864 .def_866))
(define-fun .def_870 () Bool (and .def_867 .def_869))
(define-fun .def_873 () Bool (and .def_870 .def_872))
(define-fun .def_838 () Bool (= call_moesi.ite34 call_moesi.ite33))
(define-fun .def_839 () Bool (or param_etat_mo1 .def_838))
(define-fun .def_834 () Bool (= call_moesi.ite29 call_moesi.ite34))
(define-fun .def_804 () Bool (not param_etat_mo1))
(define-fun .def_835 () Bool (or .def_804 .def_834))
(define-fun .def_829 () Bool (= call_moesi.ite28 call_moesi.ite27))
(define-fun .def_830 () Bool (or param_etat_mo1 .def_829))
(define-fun .def_825 () Bool (= call_moesi.ite23 call_moesi.ite28))
(define-fun .def_826 () Bool (or .def_804 .def_825))
(define-fun .def_820 () Bool (= call_moesi.ite22 call_moesi.ite21))
(define-fun .def_821 () Bool (or param_etat_mo1 .def_820))
(define-fun .def_816 () Bool (= call_moesi.ite17 call_moesi.ite22))
(define-fun .def_817 () Bool (or .def_804 .def_816))
(define-fun .def_811 () Bool (= call_moesi.ite15 call_moesi.ite16))
(define-fun .def_812 () Bool (or param_etat_mo1 .def_811))
(define-fun .def_808 () Bool (= call_moesi.ite9 call_moesi.ite16))
(define-fun .def_809 () Bool (or .def_804 .def_808))
(define-fun .def_803 () Bool (= call_moesi.ite call_moesi.ite8))
(define-fun .def_805 () Bool (or .def_803 .def_804))
(define-fun .def_800 () Bool (= call_moesi.ite7 call_moesi.ite8))
(define-fun .def_802 () Bool (or .def_800 param_etat_mo1))
(define-fun .def_806 () Bool (and .def_802 .def_805))
(define-fun .def_810 () Bool (and .def_806 .def_809))
(define-fun .def_813 () Bool (and .def_810 .def_812))
(define-fun .def_818 () Bool (and .def_813 .def_817))
(define-fun .def_822 () Bool (and .def_818 .def_821))
(define-fun .def_827 () Bool (and .def_822 .def_826))
(define-fun .def_831 () Bool (and .def_827 .def_830))
(define-fun .def_836 () Bool (and .def_831 .def_835))
(define-fun .def_840 () Bool (and .def_836 .def_839))
(define-fun .def_796 () Bool (= call_moesi.ite15 call_moesi.ite14))
(define-fun .def_797 () Bool (or param_etat_mo2 .def_796))
(define-fun .def_792 () Bool (= call_moesi.ite10 call_moesi.ite15))
(define-fun .def_787 () Bool (not param_etat_mo2))
(define-fun .def_793 () Bool (or .def_787 .def_792))
(define-fun .def_786 () Bool (= call_moesi.ite7 call_moesi.ite2))
(define-fun .def_788 () Bool (or .def_786 .def_787))
(define-fun .def_782 () Bool (= call_moesi.ite7 call_moesi.ite6))
(define-fun .def_784 () Bool (or .def_782 param_etat_mo2))
(define-fun .def_789 () Bool (and .def_784 .def_788))
(define-fun .def_794 () Bool (and .def_789 .def_793))
(define-fun .def_798 () Bool (and .def_794 .def_797))
(define-fun .def_841 () Bool (and .def_798 .def_840))
(define-fun .def_874 () Bool (and .def_841 .def_873))
(define-fun .def_883 () Bool (and .def_874 .def_882))
(define-fun .def_887 () Bool (and .def_883 .def_886))
(define-fun .def_891 () Bool (and .def_887 .def_890))
(define-fun .def_895 () Bool (and .def_891 .def_894))
(define-fun .def_899 () Bool (and .def_895 .def_898))
(define-fun .def_903 () Bool (and .def_899 .def_902))
(define-fun .def_906 () Bool (and .def_903 .def_905))
(define-fun .def_909 () Bool (and .def_906 .def_908))
(define-fun .def_911 () Bool (and .def_909 .def_910))
(define-fun .def_913 () Bool (and .def_911 .def_912))
(define-fun .def_915 () Bool (and .def_913 .def_914))
(define-fun .def_917 () Bool (and .def_915 .def_916))
(define-fun .def_919 () Bool (and .def_917 .def_918))
(define-fun .def_921 () Bool (and .def_919 .def_920))
(define-fun .def_935 () Bool (and .def_921 .def_934))
(define-fun .def_937 () Bool (and .def_935 .def_936))
(define-fun .def_1359 () Bool (and .def_937 .def_1358))
(define-fun .def_1214 () Bool (and call_Sofar.Sofar call_excludes4.excludes.next))
(define-fun .def_1216 () Bool (= .def_1214 call_Sofar.flby.next))
(define-fun .def_1211 () Bool (= call_moesi.ite34.next call_moesi.flby6.next))
(define-fun .def_1207 () Bool (= call_moesi.ite28.next call_moesi.flby5.next))
(define-fun .def_1203 () Bool (= call_moesi.ite22.next call_moesi.flby4.next))
(define-fun .def_1199 () Bool (= call_moesi.ite16.next call_moesi.flby3.next))
(define-fun .def_1195 () Bool (= call_moesi.ite8.next call_moesi.flby2.next))
(define-fun .def_1189 () Bool (<= 2 call_moesi.exclusive_mo.next))
(define-fun .def_1191 () Bool (= .def_1189 call_moesi.flby.next))
(define-fun .def_1149 () Bool (<= 1 call_moesi.invalid_mo))
(define-fun .def_1185 () Bool (= call_moesi.garde_mo4.next .def_1149))
(define-fun .def_1182 () Bool (= call_moesi.ite31.next 0))
(define-fun .def_1064 () Bool (not call_moesi.garde_mo4.next))
(define-fun .def_1183 () Bool (or .def_1064 .def_1182))
(define-fun .def_1179 () Bool (= call_moesi.ite19.next 0))
(define-fun .def_1180 () Bool (or .def_1064 .def_1179))
(define-fun .def_1176 () Bool (= call_moesi.ite4.next 0))
(define-fun .def_1177 () Bool (or .def_1064 .def_1176))
(define-fun .def_1174 () Bool (= call_moesi.ite12.next 1))
(define-fun .def_1175 () Bool (or .def_1064 .def_1174))
(define-fun .def_1178 () Bool (and .def_1175 .def_1177))
(define-fun .def_1181 () Bool (and .def_1178 .def_1180))
(define-fun .def_1184 () Bool (and .def_1181 .def_1183))
(define-fun .def_1186 () Bool (and .def_1184 .def_1185))
(define-fun .def_1168 () Int (* (- 1) call_moesi.owned_mo))
(define-fun .def_1169 () Int (+ call_moesi.shared_mo .def_1168))
(define-fun .def_1170 () Bool (<= 1 .def_1169))
(define-fun .def_1171 () Bool (= call_moesi.garde_mo3.next .def_1170))
(define-fun .def_1164 () Bool (= call_moesi.ite30.next 0))
(define-fun .def_1049 () Bool (not call_moesi.garde_mo3.next))
(define-fun .def_1165 () Bool (or .def_1049 .def_1164))
(define-fun .def_1161 () Bool (= call_moesi.ite18.next 0))
(define-fun .def_1162 () Bool (or .def_1049 .def_1161))
(define-fun .def_1158 () Bool (= call_moesi.ite3.next 0))
(define-fun .def_1159 () Bool (or .def_1049 .def_1158))
(define-fun .def_1156 () Bool (= call_moesi.ite11.next 1))
(define-fun .def_1157 () Bool (or .def_1049 .def_1156))
(define-fun .def_1160 () Bool (and .def_1157 .def_1159))
(define-fun .def_1163 () Bool (and .def_1160 .def_1162))
(define-fun .def_1166 () Bool (and .def_1163 .def_1165))
(define-fun .def_1172 () Bool (and .def_1166 .def_1171))
(define-fun .def_1153 () Bool (<= 1 call_moesi.exclusive_mo))
(define-fun .def_1154 () Bool (= call_moesi.garde_mo2.next .def_1153))
(define-fun .def_1150 () Bool (= call_moesi.garde_mo1.next .def_1149))
(define-fun .def_1146 () Bool (= call_moesi.ite.next 0))
(define-fun .def_1074 () Bool (not call_moesi.garde_mo1.next))
(define-fun .def_1147 () Bool (or .def_1074 .def_1146))
(define-fun .def_1144 () Bool (= call_moesi.ite9.next 0))
(define-fun .def_1145 () Bool (or .def_1074 .def_1144))
(define-fun .def_1148 () Bool (and .def_1145 .def_1147))
(define-fun .def_1151 () Bool (and .def_1148 .def_1150))
(define-fun .def_1140 () Bool (= call_moesi.owned_mo call_moesi.ite31.next))
(define-fun .def_1141 () Bool (or call_moesi.garde_mo4.next .def_1140))
(define-fun .def_1137 () Bool (= call_moesi.owned_mo call_moesi.ite29.next))
(define-fun .def_1138 () Bool (or call_moesi.garde_mo1.next .def_1137))
(define-fun .def_1135 () Bool (= call_moesi.owned_mo call_moesi.ite30.next))
(define-fun .def_1136 () Bool (or call_moesi.garde_mo3.next .def_1135))
(define-fun .def_1139 () Bool (and .def_1136 .def_1138))
(define-fun .def_1142 () Bool (and .def_1139 .def_1141))
(define-fun .def_1130 () Bool (= call_moesi.invalid_mo call_moesi.ite25.next))
(define-fun .def_1131 () Bool (or call_moesi.garde_mo4.next .def_1130))
(define-fun .def_1127 () Bool (= call_moesi.invalid_mo call_moesi.ite24.next))
(define-fun .def_1128 () Bool (or call_moesi.garde_mo3.next .def_1127))
(define-fun .def_1122 () Int (* (- 1) call_moesi.ite23.next))
(define-fun .def_1123 () Int (+ call_moesi.invalid_mo .def_1122))
(define-fun .def_1124 () Bool (= .def_1123 1))
(define-fun .def_1125 () Bool (or .def_1074 .def_1124))
(define-fun .def_1120 () Bool (= call_moesi.invalid_mo call_moesi.ite23.next))
(define-fun .def_1121 () Bool (or call_moesi.garde_mo1.next .def_1120))
(define-fun .def_1126 () Bool (and .def_1121 .def_1125))
(define-fun .def_1129 () Bool (and .def_1126 .def_1128))
(define-fun .def_1132 () Bool (and .def_1129 .def_1131))
(define-fun .def_1115 () Bool (= call_moesi.shared_mo call_moesi.ite19.next))
(define-fun .def_1116 () Bool (or call_moesi.garde_mo4.next .def_1115))
(define-fun .def_1112 () Bool (= call_moesi.shared_mo call_moesi.ite17.next))
(define-fun .def_1113 () Bool (or call_moesi.garde_mo1.next .def_1112))
(define-fun .def_1110 () Bool (= call_moesi.shared_mo call_moesi.ite18.next))
(define-fun .def_1111 () Bool (or call_moesi.garde_mo3.next .def_1110))
(define-fun .def_1114 () Bool (and .def_1111 .def_1113))
(define-fun .def_1117 () Bool (and .def_1114 .def_1116))
(define-fun .def_1102 () Int (* (- 1) call_moesi.shared_mo))
(define-fun .def_1103 () Int (+ .def_1102 call_moesi.ite17.next))
(define-fun .def_1104 () Int (+ call_moesi.exclusive_mo .def_1103))
(define-fun .def_1105 () Bool (= .def_1104 1))
(define-fun .def_1106 () Bool (or .def_1074 .def_1105))
(define-fun .def_1094 () Bool (= call_moesi.exclusive_mo call_moesi.ite12.next))
(define-fun .def_1095 () Bool (or call_moesi.garde_mo4.next .def_1094))
(define-fun .def_1091 () Bool (= call_moesi.exclusive_mo call_moesi.ite11.next))
(define-fun .def_1092 () Bool (or call_moesi.garde_mo3.next .def_1091))
(define-fun .def_1087 () Bool (= call_moesi.exclusive_mo call_moesi.ite10.next))
(define-fun .def_1088 () Bool (or call_moesi.garde_mo2.next .def_1087))
(define-fun .def_1084 () Bool (= call_moesi.exclusive_mo call_moesi.ite9.next))
(define-fun .def_1085 () Bool (or call_moesi.garde_mo1.next .def_1084))
(define-fun .def_1079 () Int (* (- 1) call_moesi.ite10.next))
(define-fun .def_1080 () Int (+ call_moesi.exclusive_mo .def_1079))
(define-fun .def_1081 () Bool (= .def_1080 1))
(define-fun .def_1017 () Bool (not call_moesi.garde_mo2.next))
(define-fun .def_1082 () Bool (or .def_1017 .def_1081))
(define-fun .def_1086 () Bool (and .def_1082 .def_1085))
(define-fun .def_1089 () Bool (and .def_1086 .def_1088))
(define-fun .def_1093 () Bool (and .def_1089 .def_1092))
(define-fun .def_1096 () Bool (and .def_1093 .def_1095))
(define-fun .def_1107 () Bool (and .def_1096 .def_1106))
(define-fun .def_1068 () Int (* (- 1) call_moesi.ite29.next))
(define-fun .def_1071 () Int (+ call_moesi.owned_mo .def_1068))
(define-fun .def_1072 () Int (+ call_moesi.modified_mo .def_1071))
(define-fun .def_1073 () Bool (= .def_1072 0))
(define-fun .def_1075 () Bool (or .def_1073 .def_1074))
(define-fun .def_1052 () Int (* (- 1) call_moesi.ite25.next))
(define-fun .def_1058 () Int (+ call_moesi.owned_mo .def_1052))
(define-fun .def_1059 () Int (+ call_moesi.invalid_mo .def_1058))
(define-fun .def_1060 () Int (+ call_moesi.shared_mo .def_1059))
(define-fun .def_1061 () Int (+ call_moesi.exclusive_mo .def_1060))
(define-fun .def_1062 () Int (+ call_moesi.modified_mo .def_1061))
(define-fun .def_1063 () Bool (= .def_1062 1))
(define-fun .def_1065 () Bool (or .def_1063 .def_1064))
(define-fun .def_1037 () Int (* (- 1) call_moesi.ite24.next))
(define-fun .def_1043 () Int (+ call_moesi.owned_mo .def_1037))
(define-fun .def_1044 () Int (+ call_moesi.invalid_mo .def_1043))
(define-fun .def_1045 () Int (+ call_moesi.shared_mo .def_1044))
(define-fun .def_1046 () Int (+ call_moesi.exclusive_mo .def_1045))
(define-fun .def_1047 () Int (+ call_moesi.modified_mo .def_1046))
(define-fun .def_1048 () Bool (= .def_1047 1))
(define-fun .def_1050 () Bool (or .def_1048 .def_1049))
(define-fun .def_1032 () Bool (= call_moesi.modified_mo call_moesi.ite4.next))
(define-fun .def_1034 () Bool (or .def_1032 call_moesi.garde_mo4.next))
(define-fun .def_1028 () Bool (= call_moesi.modified_mo call_moesi.ite3.next))
(define-fun .def_1030 () Bool (or .def_1028 call_moesi.garde_mo3.next))
(define-fun .def_1024 () Bool (= call_moesi.modified_mo call_moesi.ite2.next))
(define-fun .def_1025 () Bool (or call_moesi.garde_mo2.next .def_1024))
(define-fun .def_1020 () Bool (= call_moesi.modified_mo call_moesi.ite.next))
(define-fun .def_1022 () Bool (or .def_1020 call_moesi.garde_mo1.next))
(define-fun .def_1013 () Int (* (- 1) call_moesi.ite2.next))
(define-fun .def_1014 () Int (+ call_moesi.modified_mo .def_1013))
(define-fun .def_1015 () Bool (= .def_1014 (- 1)))
(define-fun .def_1018 () Bool (or .def_1015 .def_1017))
(define-fun .def_1023 () Bool (and .def_1018 .def_1022))
(define-fun .def_1026 () Bool (and .def_1023 .def_1025))
(define-fun .def_1031 () Bool (and .def_1026 .def_1030))
(define-fun .def_1035 () Bool (and .def_1031 .def_1034))
(define-fun .def_1051 () Bool (and .def_1035 .def_1050))
(define-fun .def_1066 () Bool (and .def_1051 .def_1065))
(define-fun .def_1076 () Bool (and .def_1066 .def_1075))
(define-fun .def_1008 () Bool (= call_moesi.owned_mo call_moesi.ite32.next))
(define-fun .def_1009 () Bool (or param_etat_mo4.next .def_1008))
(define-fun .def_1005 () Bool (= call_moesi.ite31.next call_moesi.ite32.next))
(define-fun .def_976 () Bool (not param_etat_mo4.next))
(define-fun .def_1006 () Bool (or .def_976 .def_1005))
(define-fun .def_1000 () Bool (= call_moesi.invalid_mo call_moesi.ite26.next))
(define-fun .def_1001 () Bool (or param_etat_mo4.next .def_1000))
(define-fun .def_997 () Bool (= call_moesi.ite25.next call_moesi.ite26.next))
(define-fun .def_998 () Bool (or .def_976 .def_997))
(define-fun .def_992 () Bool (= call_moesi.shared_mo call_moesi.ite20.next))
(define-fun .def_993 () Bool (or param_etat_mo4.next .def_992))
(define-fun .def_989 () Bool (= call_moesi.ite19.next call_moesi.ite20.next))
(define-fun .def_990 () Bool (or .def_976 .def_989))
(define-fun .def_984 () Bool (= call_moesi.exclusive_mo call_moesi.ite13.next))
(define-fun .def_985 () Bool (or param_etat_mo4.next .def_984))
(define-fun .def_981 () Bool (= call_moesi.ite12.next call_moesi.ite13.next))
(define-fun .def_982 () Bool (or .def_976 .def_981))
(define-fun .def_975 () Bool (= call_moesi.ite5.next call_moesi.ite4.next))
(define-fun .def_977 () Bool (or .def_975 .def_976))
(define-fun .def_971 () Bool (= call_moesi.modified_mo call_moesi.ite5.next))
(define-fun .def_973 () Bool (or .def_971 param_etat_mo4.next))
(define-fun .def_978 () Bool (and .def_973 .def_977))
(define-fun .def_983 () Bool (and .def_978 .def_982))
(define-fun .def_986 () Bool (and .def_983 .def_985))
(define-fun .def_991 () Bool (and .def_986 .def_990))
(define-fun .def_994 () Bool (and .def_991 .def_993))
(define-fun .def_999 () Bool (and .def_994 .def_998))
(define-fun .def_1002 () Bool (and .def_999 .def_1001))
(define-fun .def_1007 () Bool (and .def_1002 .def_1006))
(define-fun .def_1010 () Bool (and .def_1007 .def_1009))
(define-fun .def_951 () Int (* (- 1) owned_mo.next))
(define-fun .def_948 () Int (* (- 1) invalid_mo.next))
(define-fun .def_958 () Int (+ .def_948 .def_951))
(define-fun .def_945 () Int (* (- 1) shared_mo.next))
(define-fun .def_959 () Int (+ .def_945 .def_958))
(define-fun .def_942 () Int (* (- 1) exclusive_mo.next))
(define-fun .def_960 () Int (+ .def_942 .def_959))
(define-fun .def_940 () Int (* (- 1) modified_mo.next))
(define-fun .def_961 () Int (+ .def_940 .def_960))
(define-fun .def_962 () Int (+ owned_mo .def_961))
(define-fun .def_963 () Int (+ invalid_mo .def_962))
(define-fun .def_964 () Int (+ shared_mo .def_963))
(define-fun .def_965 () Int (+ exclusive_mo .def_964))
(define-fun .def_966 () Int (+ modified_mo .def_965))
(define-fun .def_967 () Bool (= .def_966 0))
(define-fun .def_969 () Bool (= .def_967 flby.next))
(define-fun .def_1011 () Bool (and .def_969 .def_1010))
(define-fun .def_1077 () Bool (and .def_1011 .def_1076))
(define-fun .def_1108 () Bool (and .def_1077 .def_1107))
(define-fun .def_1118 () Bool (and .def_1108 .def_1117))
(define-fun .def_1133 () Bool (and .def_1118 .def_1132))
(define-fun .def_1143 () Bool (and .def_1133 .def_1142))
(define-fun .def_1152 () Bool (and .def_1143 .def_1151))
(define-fun .def_1155 () Bool (and .def_1152 .def_1154))
(define-fun .def_1173 () Bool (and .def_1155 .def_1172))
(define-fun .def_1187 () Bool (and .def_1173 .def_1186))
(define-fun .def_1192 () Bool (and .def_1187 .def_1191))
(define-fun .def_1196 () Bool (and .def_1192 .def_1195))
(define-fun .def_1200 () Bool (and .def_1196 .def_1199))
(define-fun .def_1204 () Bool (and .def_1200 .def_1203))
(define-fun .def_1208 () Bool (and .def_1204 .def_1207))
(define-fun .def_1212 () Bool (and .def_1208 .def_1211))
(define-fun .def_1217 () Bool (and .def_1212 .def_1216))
(define-fun .def_1360 () Bool (and .def_1217 .def_1359))
(assert .def_1360)
